#---------- default ----------#
ISTART = 0
ICHARG = 2
PREC = Accurate
ENCUT = 520
EDIFF = 1E-6
ISMEAR = 0
SIGMA = 0.1
NELM = 100
NELMIN = 4
IVDW = 12
ISIF = 2 #output Pressure for static calculations

#---------- parallel ----------#
NCORE = 8
KPAR = 4

#---------- phonon ----------#
EDIFF = 1e-07
IALGO = 38
LREAL = False
ADDGRID = True
IBRION = 8 # DFPT method

#---------- chout ----------#
LWAVE = False
LCHARG = False

