POSCAR
1.00
  3.787417044196     000     -0.000000000000
  0.000000000000      4.373332500000      0.000000000000
  0.000000000000      0.000000000000     33.000000000000
V    Te    V O C Fe Mn
4    1    1 1 1 1 1
Direct
  0.001211009158      0.000605503571      0.497459452864
  0.667877661352      0.333938829668      0.389253060259
  0.667877661352      0.333938829668      0.713872238076
  0.334544335255      0.667272155765      0.281046667653
  0.334544335255      0.667272155765      0.605665845470
  0.001211009158      0.000605503571      0.253995069501
  0.001211009158      0.000605503571      0.578614247319
  0.667877661352      0.333938829668      0.470407854713
  0.334544335255      0.667272155765      0.362201462107
  0.334544335255      0.667272155765      0.686820639924
